c ---- [ banner ] ------------------------------------------------------------
c
c Kissat SAT Solver
c 
c Copyright (c) 2021-2024 Armin Biere University of Freiburg
c Copyright (c) 2019-2021 Armin Biere Johannes Kepler University Linz
c 
c Version 4.0.1 43f02cf3e992cb44653b35e5cb26f93281552ae0
c gcc (Ubuntu 13.2.0-23ubuntu4) 13.2.0 -W -Wall -O3 -DNDEBUG
c Thu Sep 12 12:27:46 CEST 2024 Linux abryzen9 6.8.0-41-generic x86_64
c
c ---- [ parsing ] -----------------------------------------------------------
c
c opened and reading DIMACS file:
c
c   /data/artifact/AMulet2.0_artifact/exp4/cnf_dc2_64/64_64_U_SP_DT_CK_GenMul_dc2.cnf
c
c parsed 'p cnf 28822 127715' header
c closing input after reading 2557120 bytes (2 MB)
c finished parsing after 0.03 seconds
c
c ---- [ options ] -----------------------------------------------------------
c
c --stable=0                       (different from default '1')
c
c ---- [ solving ] -----------------------------------------------------------
c
c  seconds switched rate     size/glue tier1  binary           remaining
c         MB reductions conflicts size  tier2     irredundant
c          level restarts redundant glue  trail           variables
c
c *  0.03 10 0 0 0  0 0   0   0 0.0 0 0 0 0 0% 10654 117059 28819 100%
c (  0.06 12 0 0 0  0 0   0   0 0.0 0 0 0 0 0% 10654 117059 28819 100%
c .  0.07 12 0 0 0  0 0   0   0 0.0 0 0 0 0 0% 10650 117059 28819 100%
c c  0.16 18 0 0 0  0 0   0   0 0.0 0 0 0 0 0% 17206 103947 25541 89%
c d  0.17 18 0 0 0  0 0   0   0 0.0 0 0 0 0 0% 10650 103947 25541 89%
c =  0.23 18 0 0 0  0 0   0   0 0.0 0 0 0 0 0% 11264 103947 25234 88%
c d  0.24 18 0 0 0  0 0   0   0 0.0 0 0 0 0 0% 10650 103947 25234 88%
c f  0.35 17 0 0 0  0 0   0   0 0.0 0 0 0 0 0% 15229 96730 27814 97%
c e  0.54 26 0 0 0  0 0   0   0 0.0 0 0 0 0 0% 9419 104147 19122 66%
c )  0.54 26 0 0 0  0 0   0   0 0.0 0 0 0 0 0% 9419 104147 19122 66%
c {  0.57 26 0 0 0  0 0   0   0 0.0 0 0 2 6 0% 9419 104147 19122 66%
c -  0.79 26 255 0 1 151 29 1000 729 3.3 21 6 3 12 25% 9445 104147 19122 66%
c -  1.17 26 258 0 2 350 39 2000 1390 3.5 25 7 3 14 27% 9465 104147 19122 66%
c c  1.38 21 268 0 2 407 40 2502 1864 3.8 28 7 4 14 28% 9522 103897 19088 66%
c d  1.39 21 268 0 2 407 40 2502 1862 3.8 28 7 4 14 28% 9454 103897 19088 66%
c u  1.42 21 268 0 2 407 40 2502 1485 3.8 28 7 4 14 28% 9463 103897 19088 66%
c v  1.44 21 268 0 2 407 40 2502 1374 3.8 28 7 4 14 28% 9463 103897 19088 66%
c w  1.46 21 268 0 2 407 40 2502 1374 3.8 28 7 4 14 28% 9463 103897 19088 66%
c x  1.48 21 268 0 2 407 40 2502 1374 3.8 28 7 4 14 28% 9463 103879 19088 66%
c =  1.57 26 268 0 2 407 40 2502 1374 3.8 28 7 4 14 28% 9859 103879 18890 66%
c
c  seconds   switched   rate       size/glue tier1     binary          remaining
c         MB  reductions conflicts       size  tier2      irredundant
c           level restarts    redundant    glue    trail          variables
c
c d  1.58 26 268 0 2 407 40 2502 1372 3.8 28 7 4 14 28% 9463 103879 18890 66%
c f  1.62 26 268 0 2 407 40 2502 1372 3.8 28 7 4 14 28% 10043 102722 19466 68%
c u  1.72 26 268 0 2 407 40 2502 1344 3.8 28 7 4 14 28% 10044 102722 19466 68%
c v  1.75 26 268 0 2 407 40 2502 1252 3.8 28 7 4 14 28% 10044 102722 19466 68%
c w  1.80 26 268 0 2 407 40 2502 1251 3.8 28 7 4 14 28% 10044 102722 19466 68%
c =  1.89 26 268 0 2 407 40 2502 1251 3.8 28 7 4 14 28% 10394 102722 19291 67%
c d  1.89 26 268 0 2 407 40 2502 1249 3.8 28 7 4 14 28% 9989 102722 19291 67%
c f  1.94 26 268 0 2 407 40 2502 1249 3.8 28 7 4 14 28% 10071 102599 19332 67%
c -  2.13 26 327 0 3 477 38 3414 1747 4.0 28 7 4 13 27% 10090 102599 19332 67%
c -  2.68 26 317 0 4 669 36 5146 2809 4.3 29 7 4 12 28% 10149 102599 19332 67%
c -  3.27 26 300 0 5 979 38 7146 3883 4.6 32 7 3 11 27% 10194 102599 19332 67%
c d  3.33 26 296 0 5 1012 37 7705 4354 4.5 31 7 3 11 27% 10129 102599 19291 67%
c u  3.36 26 296 0 5 1012 37 7705 3693 4.5 31 7 3 11 27% 10145 102599 19291 67%
c v  3.38 26 296 0 5 1012 37 7705 3358 4.5 31 7 3 11 27% 10145 102599 19291 67%
c w  3.40 26 296 0 5 1012 37 7705 3358 4.5 31 7 3 11 27% 10145 102599 19291 67%
c x  3.44 26 296 0 5 1012 37 7705 3358 4.5 31 7 3 11 27% 10145 101945 19291 67%
c =  3.57 26 296 0 5 1012 37 7705 3358 4.5 31 7 3 11 27% 11217 101945 18755 65%
c d  3.58 26 296 0 5 1012 37 7705 3338 4.5 31 7 3 11 27% 10013 101945 18754 65%
c t  3.59 26 296 0 5 1012 37 7705 3338 4.5 31 7 3 11 27% 10003 101945 18754 65%
c f  3.63 26 296 0 5 1012 37 7705 3338 4.5 31 7 3 11 27% 10915 100574 19210 67%
c
c  seconds   switched    rate       size/glue tier1     binary           remaining
c         MB  reductions  conflicts       size  tier2       irredundant
c           level  restarts    redundant    glue    trail           variables
c
c u  3.69 26 296 0 5 1012 37 7705 3191 4.5 31 7 3 11 27% 10915 100574 19210 67%
c v  3.71 26 296 0 5 1012 37 7705 3107 4.5 31 7 3 11 27% 10915 100574 19210 67%
c w  3.74 26 296 0 5 1012 37 7705 3103 4.5 31 7 3 11 27% 10915 100574 19210 67%
c x  3.76 26 296 0 5 1012 37 7705 3103 4.5 31 7 3 11 27% 10915 100177 19210 67%
c =  3.85 26 296 0 5 1012 37 7705 3103 4.5 31 7 3 11 27% 11761 100177 18787 65%
c d  3.85 26 296 0 5 1012 37 7705 3081 4.5 31 7 3 11 27% 10753 100177 18787 65%
c t  3.86 26 296 0 5 1012 37 7705 3081 4.5 31 7 3 11 27% 10703 100177 18787 65%
c f  3.89 26 296 0 5 1012 37 7705 3081 4.5 31 7 3 11 27% 12535 97429 19703 68%
c -  4.09 26 308 0 6 1109 35 9383 3935 4.3 29 7 2 10 26% 12561 97429 19703 68%
c o  4.24 26 301 0 6 1181 34 10181 4608 4.3 30 7 2 10 27% 12590 97429 19703 68%
c -  4.59 26 293 0 7 1342 33 11832 5228 4.4 30 7 2 10 27% 12642 97429 19703 68%
c s  4.70 26 290 0 7 1369 32 12508 5843 4.3 30 7 2 10 27% 12652 91343 19703 68%
c e  4.78 26 290 0 7 1369 32 12508 5843 4.3 30 7 2 10 27% 11872 91883 19231 67%
c 2  4.78 26 290 0 7 1369 32 12508 5843 4.3 30 7 2 10 27% 11871 91883 19231 67%
c s  4.79 26 290 0 7 1369 32 12508 5843 4.3 30 7 2 10 27% 11871 91446 19231 67%
c e  4.79 26 290 0 7 1369 32 12508 5843 4.3 30 7 2 10 27% 11870 91446 19230 67%
c ^  4.79 26 290 0 7 1369 32 12508 5843 4.3 30 7 2 10 27% 11870 91446 19230 67%
c -  5.17 26 299 0 8 1548 32 14477 6236 4.3 30 7 2 10 27% 11913 91446 19230 67%
c d  5.37 26 319 0 8 1625 32 15783 7342 4.2 30 7 2 10 27% 11414 91446 18920 66%
c u  5.39 26 319 0 8 1625 32 15783 6589 4.2 30 7 2 10 27% 11428 91446 18920 66%
c
c  seconds   switched    rate        size/glue tier1     binary          remaining
c         MB  reductions   conflicts       size  tier2       irredundant
c           level  restarts     redundant    glue    trail          variables
c
c v  5.43 26 319 0 8 1625 32 15783 5608 4.2 30 7 2 10 27% 11429 91446 18920 66%
c w  5.46 26 319 0 8 1625 32 15783 5608 4.2 30 7 2 10 27% 11429 91446 18920 66%
c x  5.49 26 319 0 8 1625 32 15783 5608 4.2 30 7 2 10 27% 11447 91272 18920 66%
c =  5.66 26 319 0 8 1625 32 15783 5608 4.2 30 7 2 10 27% 12257 91268 18515 64%
c d  5.67 26 319 0 8 1625 32 15783 5538 4.2 30 7 2 10 27% 11281 91268 18513 64%
c t  5.69 26 319 0 8 1625 32 15783 5538 4.2 30 7 2 10 27% 11241 91268 18513 64%
c f  5.75 26 319 0 8 1625 32 15783 5538 4.2 30 7 2 10 27% 11363 91021 18575 64%
c u  5.79 26 319 0 8 1625 32 15783 5395 4.2 30 7 2 10 27% 11368 91021 18575 64%
c v  5.84 26 319 0 8 1625 32 15783 5253 4.2 30 7 2 10 27% 11368 91021 18575 64%
c w  5.91 26 319 0 8 1625 32 15783 5243 4.2 30 7 2 10 27% 11368 91021 18575 64%
c x  5.95 26 319 0 8 1625 32 15783 5243 4.2 30 7 2 10 27% 11368 89402 18575 64%
c =  6.14 26 319 0 8 1625 32 15783 5243 4.2 30 7 2 10 27% 12250 89402 18134 63%
c d  6.15 26 319 0 8 1625 32 15783 5218 4.2 30 7 2 10 27% 10959 89402 18134 63%
c t  6.17 26 319 0 8 1625 32 15783 5218 4.2 30 7 2 10 27% 10956 89402 18134 63%
c f  6.19 26 319 0 8 1625 32 15783 5218 4.2 30 7 2 10 27% 10960 89394 18136 63%
c -  6.59 26 317 0 9 1752 32 17306 5768 4.2 29 7 2 10 27% 10988 89394 18136 63%
c o  7.24 26 317 0 9 1973 31 20202 8204 4.3 30 7 2 10 27% 11084 89394 18136 63%
c -  7.31 26 316 0 10 2001 31 20309 7360 4.3 31 7 2 9 27% 11089 89394 18136 63%
c -  8.10 26 320 0 11 2326 32 23471 8827 4.4 32 7 2 9 27% 11173 89394 18136 63%
c s  8.50 26 316 0 11 2491 31 25010 10191 4.4 32 7 2 9 27% 11203 87678 18136 63%
c
c  seconds   switched     rate         size/glue tier1    binary         remaining
c         MB   reductions   conflicts        size  tier2     irredundant
c           level   restarts      redundant    glue   trail         variables
c
c e  8.61 26 316 0 11 2491 31 25010 10191 4.4 32 7 2 9 27% 9151 90367 17013 59%
c s  8.61 26 316 0 11 2491 31 25010 10191 4.4 32 7 2 9 27% 9163 89961 17013 59%
c e  8.62 26 316 0 11 2491 31 25010 10191 4.4 32 7 2 9 27% 9157 89969 17010 59%
c ^  8.62 26 316 0 11 2491 31 25010 10191 4.4 32 7 2 9 27% 9157 89969 17010 59%
c -  9.00 26 322 0 12 2635 31 26787 9344 4.3 32 7 2 9 27% 9185 89969 17010 59%
c c  9.07 26 323 0 12 2635 31 26909 9414 4.3 32 7 2 9 27% 9260 89655 16964 59%
c d  9.07 26 323 0 12 2635 31 26909 9353 4.3 32 7 2 9 27% 8713 89655 16692 58%
c u  9.12 26 323 0 12 2635 31 26909 8310 4.3 32 7 2 9 27% 8723 89655 16692 58%
c v  9.17 26 323 0 12 2635 31 26909 7343 4.3 32 7 2 9 27% 8725 89655 16692 58%
c w  9.18 26 323 0 12 2635 31 26909 7338 4.3 32 7 2 9 27% 8725 89655 16692 58%
c x  9.27 26 323 0 12 2635 31 26909 7337 4.3 32 7 2 9 27% 8725 89137 16692 58%
c =  9.54 26 323 0 12 2635 31 26909 7337 4.3 32 7 2 9 27% 12645 89137 14732 51%
c d  9.55 26 323 0 12 2635 31 26909 6996 4.3 32 7 2 9 27% 8641 89137 14732 51%
c t  9.57 26 323 0 12 2635 31 26909 6996 4.3 32 7 2 9 27% 8636 89137 14732 51%
c f  9.63 26 323 0 12 2635 31 26909 6996 4.3 32 7 2 9 27% 8637 89130 14734 51%
c u  9.68 26 323 0 12 2635 31 26909 6471 4.3 32 7 2 9 27% 8640 89130 14734 51%
c v  9.72 26 323 0 12 2635 31 26909 6330 4.3 32 7 2 9 27% 8640 89130 14734 51%
c x  9.84 26 323 0 12 2635 31 26909 6330 4.3 32 7 2 9 27% 8649 80797 14734 51%
c = 10.10 26 323 0 12 2635 31 26909 6330 4.3 32 7 2 9 27% 10479 80773 13818 48%
c d 10.10 26 323 0 12 2635 31 26909 6247 4.3 32 7 2 9 27% 8607 80773 13818 48%
c
c  seconds   switched     rate        size/glue tier1    binary         remaining
c         MB   reductions   conflicts       size  tier2     irredundant
c           level   restarts     redundant    glue   trail         variables
c
c - 10.68 26 306 0 13 2945 31 30251 8152 4.3 32 7 2 9 27% 8630 80773 13818 48%
c - 11.28 26 294 0 14 3338 30 33857 10207 4.2 32 8 2 8 27% 8652 80767 13818 48%
c - 11.93 28 280 0 15 3783 30 37598 11871 4.2 32 8 2 8 28% 8679 80762 13818 48%
c o 12.37 28 277 0 15 4089 30 40244 14295 4.1 32 8 2 8 28% 8704 80762 13818 48%
c c 12.66 28 273 0 15 4236 30 41242 15165 4.1 33 8 2 8 28% 8768 80444 13764 48%
c d 12.66 28 273 0 15 4236 30 41242 14991 4.1 33 8 2 8 28% 8660 80444 13764 48%
c u 12.72 28 273 0 15 4236 30 41242 12669 4.1 33 8 2 8 28% 8680 80444 13764 48%
c v 12.83 28 273 0 15 4236 30 41242 10889 4.1 33 8 2 8 28% 8684 80444 13764 48%
c w 12.89 28 273 0 15 4236 30 41242 10887 4.1 33 8 2 8 28% 8684 80444 13764 48%
c x 12.98 28 273 0 15 4236 30 41242 10886 4.1 33 8 2 8 28% 8684 73133 13764 48%
c d 13.29 28 273 0 15 4236 30 41242 10882 4.1 33 8 2 8 28% 8670 73133 13757 48%
c t 13.31 28 273 0 15 4236 30 41242 10882 4.1 33 8 2 8 28% 8664 73133 13757 48%
c f 13.32 28 273 0 15 4236 30 41242 10882 4.1 33 8 2 8 28% 8666 73128 13758 48%
c c 13.38 28 273 0 15 4236 30 41242 10838 4.1 33 8 2 8 28% 8684 73048 13748 48%
c d 13.38 28 273 0 15 4236 30 41242 10838 4.1 33 8 2 8 28% 8664 73048 13748 48%
c u 13.44 28 273 0 15 4236 30 41242 10496 4.1 33 8 2 8 28% 8668 73048 13748 48%
c v 13.49 28 273 0 15 4236 30 41242 10221 4.1 33 8 2 8 28% 8671 73048 13748 48%
c w 13.64 28 273 0 15 4236 30 41242 10201 4.1 33 8 2 8 28% 8671 73048 13748 48%
c x 13.73 28 273 0 15 4236 30 41242 10201 4.1 33 8 2 8 28% 8674 69525 13748 48%
c d 13.74 28 273 0 15 4236 30 41242 10197 4.1 33 8 2 8 28% 8670 69525 13746 48%
c
c  seconds   switched     rate         size/glue tier1    binary         remaining
c         MB   reductions   conflicts        size  tier2     irredundant
c           level   restarts      redundant    glue   trail         variables
c
c t 13.75 28 273 0 15 4236 30 41242 10197 4.1 33 8 2 8 28% 8669 69525 13746 48%
c - 13.92 28 272 0 16 4301 30 41470 9039 4.1 33 8 2 8 28% 8669 69524 13746 48%
c - 14.91 28 264 0 17 4760 30 45470 11063 4.1 34 8 2 8 28% 8713 69523 13746 48%
c - 15.30 28 255 0 18 4918 28 49593 12923 4.0 32 8 2 7 27% 8749 69522 13746 48%
c s 15.86 28 255 0 18 5154 28 52110 15196 4.0 32 8 2 7 27% 8767 69227 13746 48%
c e 15.94 28 255 0 18 5154 28 52110 15196 4.0 32 8 2 7 27% 8425 69671 13472 47%
c s 15.95 28 255 0 18 5154 28 52110 15196 4.0 32 8 2 7 27% 8425 69543 13472 47%
c e 15.95 28 255 0 18 5154 28 52110 15196 4.0 32 8 2 7 27% 8423 69542 13468 47%
c ^ 15.95 28 255 0 18 5154 28 52110 15196 4.0 32 8 2 7 27% 8423 69542 13468 47%
c - 16.31 28 255 0 19 5304 28 53835 13503 4.0 32 8 2 7 28% 8436 69542 13468 47%
c - 16.70 28 247 0 20 5474 26 58193 15203 3.9 31 8 2 7 27% 8450 69542 13468 47%
c d 16.79 28 247 0 20 5516 26 58905 15764 3.9 31 8 2 7 26% 8432 69542 13456 47%
c u 16.86 28 247 0 20 5516 26 58905 13728 3.9 31 8 2 7 26% 8449 69542 13456 47%
c v 16.92 28 247 0 20 5516 26 58905 12559 3.9 31 8 2 7 26% 8449 69542 13456 47%
c w 16.96 28 247 0 20 5516 26 58905 12520 3.9 31 8 2 7 26% 8449 69542 13456 47%
c x 17.03 28 247 0 20 5516 26 58905 12520 3.9 31 8 2 7 26% 8449 69455 13456 47%
c = 17.31 28 247 0 20 5516 26 58905 12520 3.9 31 8 2 7 26% 9145 69455 13108 45%
c d 17.32 28 247 0 20 5516 26 58905 12272 3.9 31 8 2 7 26% 8399 69455 13103 45%
c t 17.33 28 247 0 20 5516 26 58905 12272 3.9 31 8 2 7 26% 8394 69455 13103 45%
c f 17.36 28 247 0 20 5516 26 58905 12272 3.9 31 8 2 7 26% 8400 69433 13106 45%
c
c  seconds   switched     rate         size/glue tier1    binary         remaining
c         MB   reductions   conflicts        size  tier2     irredundant
c           level   restarts      redundant    glue   trail         variables
c
c c 17.40 28 247 0 20 5516 26 58905 12228 3.9 31 8 2 7 26% 8439 69273 13086 45%
c d 17.41 28 247 0 20 5516 26 58905 12228 3.9 31 8 2 7 26% 8399 69273 13086 45%
c u 17.46 28 247 0 20 5516 26 58905 11674 3.9 31 8 2 7 26% 8407 69273 13086 45%
c v 17.51 28 247 0 20 5516 26 58905 11188 3.9 31 8 2 7 26% 8407 69273 13086 45%
c w 17.53 28 247 0 20 5516 26 58905 11163 3.9 31 8 2 7 26% 8407 69273 13086 45%
c = 17.82 28 247 0 20 5516 26 58905 11163 3.9 31 8 2 7 26% 8907 69273 12836 45%
c d 17.82 28 247 0 20 5516 26 58905 10548 3.9 31 8 2 7 26% 8385 69273 12836 45%
c t 17.84 28 247 0 20 5516 26 58905 10548 3.9 31 8 2 7 26% 8384 69273 12836 45%
c - 18.42 28 242 0 21 5784 26 62666 12241 3.8 30 8 2 7 26% 8415 69273 12836 45%
c - 19.04 28 237 0 22 6047 25 67249 14432 3.7 30 8 2 7 26% 8466 69273 12836 45%
c o 19.69 28 234 0 22 6345 25 70247 17084 3.7 30 8 2 7 26% 8505 69273 12836 45%
c - 20.09 28 234 0 23 6502 25 71940 16278 3.7 30 8 2 6 27% 8512 69273 12836 45%
c i 20.58 28 232 0 23 6743 25 74014 18063 3.7 30 8 2 6 27% 8549 69273 12835 45%
c - 21.14 28 227 0 24 6977 25 76736 17861 3.7 30 8 2 6 27% 8584 69273 12835 45%
c i 21.27 28 227 0 24 7037 25 77716 18658 3.7 30 8 2 6 27% 8617 69273 12834 45%
c i 21.51 28 226 0 24 7149 25 78559 19440 3.7 30 8 2 6 27% 8627 69273 12832 45%
c c 21.99 28 225 0 24 7340 25 80001 20806 3.7 30 8 2 6 27% 8674 68548 12718 44%
c d 22.00 28 225 0 24 7340 25 80001 20184 3.7 30 8 2 6 27% 8473 68538 12718 44%
c d 22.00 28 225 0 24 7340 25 80001 20120 3.7 30 8 2 6 27% 8454 68538 12709 44%
c b 22.01 28 225 0 24 7340 25 80001 20120 3.7 30 8 2 6 27% 8454 68538 12708 44%
c
c  seconds   switched     rate         size/glue tier1    binary         remaining
c         MB   reductions   conflicts        size  tier2     irredundant
c           level   restarts      redundant    glue   trail         variables
c
c u 22.09 28 225 0 24 7340 25 80001 16854 3.7 30 8 2 6 27% 8524 68538 12705 44%
c v 22.19 28 225 0 24 7340 25 80001 14928 3.7 30 8 2 6 27% 8531 68538 12705 44%
c w 22.26 28 225 0 24 7340 25 80001 14928 3.7 30 8 2 6 27% 8531 68538 12705 44%
c x 22.35 28 225 0 24 7340 25 80001 14927 3.7 30 8 2 6 27% 8536 65625 12705 44%
c d 22.41 28 225 0 24 7340 25 80001 14884 3.7 30 8 2 6 27% 8466 65625 12670 44%
c t 22.43 28 225 0 24 7340 25 80001 14884 3.7 30 8 2 6 27% 8456 65625 12669 44%
c c 22.49 28 225 0 24 7340 25 80001 14867 3.7 30 8 2 6 27% 8472 65453 12652 44%
c d 22.49 28 225 0 24 7340 25 80001 14857 3.7 30 8 2 6 27% 8438 65453 12652 44%
c u 22.57 28 225 0 24 7340 25 80001 14038 3.7 30 8 2 6 27% 8456 65453 12651 44%
c v 22.63 28 225 0 24 7340 25 80001 13701 3.7 30 8 2 6 27% 8457 65453 12651 44%
c w 22.78 28 225 0 24 7340 25 80001 13694 3.7 30 8 2 6 27% 8457 65453 12651 44%
c x 22.89 28 225 0 24 7340 25 80001 13687 3.7 30 8 2 6 27% 8460 63765 12651 44%
c d 22.90 28 225 0 24 7340 25 80001 13675 3.7 30 8 2 6 27% 8450 63765 12646 44%
c i 22.93 28 225 0 24 7340 25 80001 13675 3.7 30 8 2 6 27% 8450 63765 12646 44%
c i 23.21 28 223 0 24 7524 25 81565 15125 3.7 30 8 2 6 27% 8462 63764 12645 44%
c - 23.22 28 223 0 25 7527 25 81634 13212 3.7 30 8 2 6 27% 8457 63764 12645 44%
c i 23.34 28 221 0 25 7622 25 83545 14674 3.7 30 8 2 6 27% 8500 63764 12644 44%
c - 23.80 28 217 0 26 8007 25 86634 15354 3.6 30 8 2 6 27% 8515 63762 12644 44%
c i 23.93 28 216 0 26 8122 25 87171 15863 3.6 30 8 2 6 27% 8520 63760 12643 44%
c i 24.04 28 214 0 26 8219 25 88493 16919 3.6 30 8 2 6 27% 8562 63760 12642 44%
c
c  seconds   switched     rate         size/glue tier1    binary         remaining
c         MB   reductions   conflicts        size  tier2     irredundant
c           level   restarts      redundant    glue   trail         variables
c
c i 24.24 28 214 0 26 8375 25 90584 18702 3.6 30 8 2 6 27% 8585 63759 12641 44%
c i 24.37 28 213 0 26 8504 25 91468 19451 3.6 30 8 2 6 27% 8601 63759 12639 44%
c i 24.37 28 213 0 26 8504 25 91489 19456 3.6 30 8 2 6 27% 8603 63759 12638 44%
c - 24.39 28 212 0 27 8525 24 91735 17214 3.6 30 8 2 6 27% 8597 63759 12638 44%
c i 24.49 28 212 0 27 8605 25 92265 17723 3.6 30 8 2 6 27% 8599 63759 12637 44%
c i 24.57 28 210 0 27 8668 24 93292 18671 3.6 29 8 2 6 27% 8605 63759 12636 44%
c i 24.70 28 208 0 27 8751 24 95826 20829 3.5 29 8 2 6 27% 8623 63759 12633 44%
c s 24.71 28 208 0 27 8753 24 95851 20854 3.5 29 8 2 6 27% 8628 63586 12633 44%
c e 24.78 28 208 0 27 8753 24 95851 20854 3.5 29 8 2 6 27% 5554 70389 10987 38%
c 2 24.78 28 208 0 27 8753 24 95851 20854 3.5 29 8 2 6 27% 5553 70389 10987 38%
c s 24.79 28 208 0 27 8753 24 95851 20854 3.5 29 8 2 6 27% 5553 69838 10987 38%
c e 24.80 28 208 0 27 8753 24 95851 20854 3.5 29 8 2 6 27% 5546 69846 10954 38%
c ^ 24.80 28 208 0 27 8753 24 95851 20854 3.5 29 8 2 6 27% 5546 69846 10954 38%
c i 24.82 28 208 0 27 8770 24 96275 15285 3.5 29 8 2 6 27% 5561 69841 10952 38%
c i 24.85 28 207 0 27 8794 23 96806 15755 3.5 29 8 2 6 27% 5568 69841 10951 38%
c - 24.86 28 206 0 28 8794 23 96931 14057 3.5 29 8 2 6 27% 5564 69811 10951 38%
c i 25.00 28 204 0 28 8871 23 98196 15197 3.5 28 8 2 6 27% 5571 69807 10950 38%
c i 25.07 28 203 0 28 8944 23 99019 15895 3.4 28 8 2 6 27% 5581 69806 10949 38%
c i 25.13 28 202 0 28 8994 23 99649 16439 3.4 28 8 2 6 27% 5595 69806 10948 38%
c - 25.25 28 199 0 29 9083 22 102222 16074 3.4 28 8 2 6 27% 5634 69806 10948 38%
c
c  seconds   switched     rate          size/glue tier1    binary         remaining
c         MB   reductions   conflicts         size  tier2     irredundant
c           level   restarts       redundant    glue   trail         variables
c
c i 25.37 28 196 0 29 9196 22 104367 17810 3.4 27 8 2 6 26% 5665 69806 10946 38%
c c 25.43 28 195 0 29 9252 22 104690 18077 3.4 27 8 2 6 26% 5718 69041 10848 38%
c d 25.43 28 195 0 29 9252 22 104690 17402 3.4 27 8 2 6 26% 5527 69037 10848 38%
c d 25.44 28 195 0 29 9252 22 104690 17386 3.4 27 8 2 6 26% 5521 69037 10845 38%
c u 25.49 28 195 0 29 9252 22 104690 14780 3.4 27 8 2 6 26% 5544 69037 10845 38%
c v 25.54 28 195 0 29 9252 22 104690 12823 3.4 27 8 2 6 26% 5543 69037 10845 38%
c w 25.58 28 195 0 29 9252 22 104690 12803 3.4 27 8 2 6 26% 5543 69037 10845 38%
c x 25.63 28 195 0 29 9252 22 104690 12803 3.4 27 8 2 6 26% 5544 68959 10845 38%
c = 25.75 28 195 0 29 9252 22 104690 12803 3.4 27 8 2 6 26% 5714 68758 10726 37%
c } 25.75 28 195 0 29 9252 22 104690 12803 3.4 27 8 2 6 26% 5714 68758 10810 38%
c 0 25.75 28 195 0 29 9252 22 104690 12803 3.4 27 8 2 6 26% 5714 68758 10810 38%
c
c ---- [ result ] ------------------------------------------------------------
c
s UNSATISFIABLE
c
c ---- [ profiling ] ---------------------------------------------------------
c
c          17.95   69.72 %  search
c          17.95   69.72 %  focused
c           7.23   28.08 %  simplify
c           7.05   27.39 %  probe
c           2.94   11.43 %  vivify
c           2.39    9.29 %  sweep
c           0.59    2.29 %  congruence
c           0.53    2.07 %  factor
c           0.49    1.89 %  preprocess
c           0.47    1.82 %  eliminate
c           0.43    1.67 %  substitute
c           0.19    0.72 %  fastel
c           0.15    0.57 %  reduce
c           0.11    0.44 %  transitive
c           0.07    0.29 %  subsume
c           0.05    0.20 %  backbone
c           0.05    0.18 %  lucky
c           0.03    0.13 %  parse
c =============================================
c          25.75  100.00 %  total
c
c ---- [ statistics ] --------------------------------------------------------
c
c chronological:                         4084                4 %  conflicts
c conflicts:                           104690             4066.17 per second
c congruent:                             3670               13 %  variables
c decisions:                          2324663               22.21 per conflict
c eliminated:                           12245               42 %  variables
c factored:                              4639               16 %  variables
c fast_eliminated:                       8692               71 %  eliminated
c fast_strengthened:                       20                3 %  per strengthened
c fast_subsumed:                          109                1 %  per subsumed
c iterations:                              19                0 %  variables
c propagations:                      98837195          3838851    per second
c reductions:                              29             3610    interval
c reordered:                                4            26172    interval
c restarts:                              9252               11    interval
c strengthened:                           678                0 %  checks
c substituted:                          10332               36 %  variables
c subsumed:                              9803                0 %  checks
c switched:                                 0                0    interval
c vivified:                             62414               12 %  checks
c
c ---- [ glue usage ] --------------------------------------------------------
c
c focused glue 2 used 55890 clauses 23.23% accumulated 71.71% tier1
c focused glue 3 used 18524 clauses  7.70% accumulated 79.42%
c focused glue 4 used 12169 clauses  5.06% accumulated 84.47%
c focused glue 5 used  8045 clauses  3.34% accumulated 87.82%
c focused glue 6 used  5952 clauses  2.47% accumulated 90.29% tier2
c
c ---- [ resources ] ---------------------------------------------------------
c
c maximum-resident-set-size:         29679616 bytes         28 MB
c process-time:                            26s              25.75 seconds
c
c ---- [ shutting down ] -----------------------------------------------------
c
c exit 20
